NAME : B-n10-2
DIMENSION : 10
VEHICLE NUMBER : 5
VEHICLE CAPACITY : 70
MAX POD NUMBER : 2
NODE_COORD_SECTION 
 1 37 21
 2 77 57
 3 97 79
 4 39 33
 5 45 47
 6 85 23
 7 7 1
 8 16 6
 9 21 13
 10 21 7
DEMAND_SECTION 
1 0 
2 14 
3 16 
4 18 
5 20 
6 1 
7 12 
8 13 
9 18 
10 9 
DEPOT_SECTION 
 1  
 -1  
EOF 
